c Output_time 26.03.2020 18:13:09_+0100 1585242789665726546
c ** Program information **
c program_name                          "QBRG_debug"
c version                               "0.3.20"
c date                                  "25.3.2020"
c gid_id                                "673970833836058123f633335630c185360d632e"
c author                                "Oliver Kullmann"
c url                                   "https://github.com/OKullmann/oklibrary/blob/master/Satisfiability/Transformers/Generators/Random/QBRG.cpp"
c ** Machine information **
c machine_name                          "chyna-Lenovo-G50-70"
c bogomips                              3791.08
c ** Compilation information **
c compiler_version                      "g++ 7.5.0"
c compilation_date                      "Mar_26_2020 11:16:30"
c compilation_options                   "--std=c++17 -pedantic -fmax-errors=5 -Wall -Wextra -g -D_GLIBCXX_DEBUG"
c NDEBUG                                0
c OPTIMIZE                              0
c ** Parameters **
c command-line                          "./QBRG_debug" "e40 a40 40" "135*1,1|2-2,1|3-3,1" "" "1,t" ""
c output                                "QuBlRaGe_120_135_1585242789665568095.qdimacs"
c options                               "filtered,renamed"
c num_quantifier_blocks                 3
c  quantifier_blocks                    1:e1-40 2:a41-80 3:e81-120
c num_clause-blocks                     1
c  clause-blocks                        135 * {1-40,1,1/2} | {41-80,1,1/2} | {81-120,1,1/2}
c num_e-seeds                           30+2=32
c  e-seeds                              1 0 1 0 4 120 2 40 1 40 0 40 1 135 3 1 1 1 1 2 2 2 1 1 2 3 3 1 1 2 1 1585242789665567682
p cnf 114 135
e 1 2 3 4 5 6 7 8 9 10 11 12 13 14 15 16 17 18 19 20 21 22 23 24 25 26 27 28 29 30 31 32 33 34 35 36 37 38 39 0
a 40 41 42 43 44 45 46 47 48 49 50 51 52 53 54 55 56 57 58 59 60 61 62 63 64 65 66 67 68 69 70 71 72 73 74 75 0
e 76 77 78 79 80 81 82 83 84 85 86 87 88 89 90 91 92 93 94 95 96 97 98 99 100 101 102 103 104 105 106 107 108 109 110 111 112 113 114 0
11 -42 76 0
2 -55 76 0
-17 66 76 0
-13 48 -77 0
-32 59 -77 0
17 74 -77 0
38 51 77 0
35 66 -78 0
-2 69 -78 0
-5 -50 79 0
25 -73 79 0
17 -45 -80 0
-16 -75 -80 0
-6 -40 80 0
-37 -65 80 0
17 -44 81 0
-22 67 81 0
-1 54 -82 0
-14 67 -82 0
-32 -72 -82 0
6 -54 -83 0
-21 52 83 0
-24 -67 83 0
28 -42 -84 0
-20 43 -84 0
3 73 -84 0
-19 64 84 0
26 -65 84 0
-10 48 -85 0
34 65 -85 0
-5 75 -85 0
37 40 85 0
-10 44 85 0
-6 -49 85 0
11 -61 -86 0
-19 71 -86 0
-30 71 -86 0
23 -50 86 0
25 -72 86 0
28 44 -87 0
-10 -56 87 0
-13 56 87 0
31 63 87 0
21 -74 87 0
7 -47 -88 0
-4 -62 -89 0
-30 70 -89 0
-23 -47 89 0
-25 47 89 0
29 48 89 0
-27 -59 89 0
-27 -47 -90 0
33 52 -90 0
-4 53 -90 0
-17 72 91 0
-11 -73 -92 0
20 -51 92 0
-5 -60 -93 0
-6 -43 -94 0
1 65 94 0
-18 -52 -95 0
31 -63 -95 0
-35 -53 95 0
-27 41 -96 0
16 -62 -96 0
-16 73 -96 0
-2 49 96 0
8 55 -97 0
-19 -69 -97 0
-16 -74 -97 0
-17 75 -97 0
5 43 97 0
-1 -65 97 0
-29 57 98 0
32 -61 98 0
23 40 -99 0
-37 44 -99 0
20 -57 -99 0
5 71 -99 0
5 75 -99 0
3 47 99 0
32 -56 100 0
33 -51 -101 0
-33 58 -101 0
-16 55 101 0
-37 71 101 0
-28 -48 -102 0
28 -57 -102 0
20 64 102 0
6 -40 103 0
-15 -60 103 0
-30 62 103 0
-27 -54 -104 0
36 61 -104 0
10 69 -104 0
-7 51 104 0
9 63 104 0
-10 -61 -105 0
-14 -40 105 0
-10 74 105 0
16 75 105 0
12 54 106 0
30 50 -107 0
-20 -64 107 0
-39 75 107 0
7 -54 108 0
5 55 108 0
-8 56 108 0
-1 -71 108 0
-10 -43 -109 0
-16 -43 -109 0
-36 -44 -109 0
10 -46 -109 0
20 -54 -109 0
7 -70 109 0
21 56 -110 0
11 -67 -110 0
-8 -40 110 0
-33 51 110 0
-34 -70 110 0
-28 -43 -111 0
-2 -58 -111 0
-31 62 -111 0
38 -59 111 0
-5 61 111 0
-7 52 -112 0
31 74 -112 0
36 41 112 0
-21 -64 113 0
36 65 113 0
19 51 -114 0
16 54 -114 0
-33 68 -114 0
34 47 114 0
5 -64 114 0
